78
150
105	6
104	4
103	1
102	1
101	2
100	2
99	1
98	2
97	4
96	1
95	1
93	3
91	5
90	2
89	3
88	1
87	6
86	1
85	3
84	2
83	4
82	1
81	4
80	2
79	1
78	2
77	3
76	2
74	1
73	3
72	3
71	4
70	3
69	1
68	5
67	1
66	4
65	1
64	1
63	1
62	2
61	1
60	2
59	1
58	6
57	3
55	4
54	3
52	3
51	2
49	3
48	2
47	2
45	2
44	3
43	5
41	1
40	2
39	3
38	4
37	3
36	5
34	5
33	1
32	3
30	1
29	2
27	3
26	2
25	2
23	5
22	3
21	1
20	1
19	3
18	2
17	4
16	2
